(set-info :Origin "This instance was generated by: BanditFuzz-- an RL fuzzer for SMT solvers" )
(set-info :Author "Joe Scott, Fed Mora, Vijay Ganesh" )
(set-info :Contact "Joe Scott, joseph.scott@uwaterloo.ca")
; solvers/z3.sh
; 	time => 0.04433894157409668
; 	answer => err
; solvers/cvc4.sh
; 	time => 0.04932427406311035
; 	answer => err
(set-logic QF_NIA)
(declare-const bool_0 Bool)
(declare-const bool_1 Bool)
(declare-const bool_2 Bool)
(declare-const bool_3 Bool)
(declare-const bool_4 Bool)
(declare-const int_0 Int)
(declare-const int_1 Int)
(declare-const int_2 Int)
(declare-const int_3 Int)
(declare-const int_4 Int)
(assert (=> (>= (mod (- 685460921) int_3) (mod (- 737255169) (- 646706295))) (not (>= (- 425679699) 954141054))))
(assert (<= (mod (- (- 528656524)) (- 850307677 (- 947861509))) (mod (/ int_2 int_2) (- (- 870490845)))))
(assert (>= (* (/ int_3 299171692) (* (- 511390514) int_4)) (* (- int_0) (+ 945060038 888564791))))
(assert (<= (- (- int_3 619380176) (- int_3 (- 434857918))) (- (- (- 289615729)))))
(assert (>= (/ (mod int_1 int_0) (/ int_0 int_1)) (mod (* 712387766 335158267) (mod int_1 int_2))))
(check-sat)
(exit)
